RT is False
Default write of storage_offers_DA.csv just to have a file (but constraint should be inactive)
Reading model...
...model read.
creating competitive generators file...
...competitive generators recorded.
Loading data...
.. day-ahead data with real-time VRE data read.
Compiling instance...
...instance created.
Creating Offer Mitigation (model will solve as dispatch if TRUE)...
NOTE: storage offers will not be mitigated
...storage offer mitigation file created
Converting model to MPEC...
...converted
NOTE: initial MIP solve with only storage competitive to get feasible solution
Solving...

Welcome to IBM(R) ILOG(R) CPLEX(R) Interactive Optimizer 12.9.0.0
  with Simplex, Mixed Integer & Barrier Optimizers
5725-A06 5725-A29 5724-Y48 5724-Y49 5724-Y54 5724-Y55 5655-Y21
Copyright IBM Corp. 1988, 2019.  All Rights Reserved.

Type 'help' for a list of available commands.
Type 'help' followed by a command name for more
information on commands.

CPLEX> Logfile 'cplex.log' closed.
Logfile 'C:\Users\llavin\Desktop\test826\logs\tmpjf632t5y.cplex.log' open.
CPLEX> New value for parallel optimization mode: -1
CPLEX> New value for emphasis for MIP optimization: 1
CPLEX> New value for mixed integer optimality gap tolerance: 0.01
CPLEX> New value for integrality tolerance: 1e-12
CPLEX> New value for deterministic time limit in ticks: 75000
CPLEX> Problem 'C:\Users\llavin\Desktop\test826\logs\tmpooa897la.pyomo.lp' read.
Read time = 0.25 sec. (13.92 ticks)
CPLEX> Problem name         : C:\Users\llavin\Desktop\test826\logs\tmpooa897la.pyomo.lp
Objective sense      : Maximize
Variables            :   53809  [Nneg: 1,  Box: 22004,  Free: 4464,
                                 Binary: 27340]
Objective nonzeros   :    8980
Linear constraints   :  123253  [Less: 41346,  Greater: 59096,  Equal: 22811]
  Nonzeros           :  293289
  RHS nonzeros       :   67491

Variables            : Min LB: -5000.000        Max UB: 1000000.       
Objective nonzeros   : Min   : 0.1083333        Max   : 809.1583       
Linear constraints   :
  Nonzeros           : Min   : 0.1083333        Max   : 1000000.       
  RHS nonzeros       : Min   : 0.1083333        Max   : 1000000.       
CPLEX> CPXPARAM_Parallel                                -1
CPXPARAM_Emphasis_MIP                            1
CPXPARAM_DetTimeLimit                            75000
CPXPARAM_MIP_Tolerances_MIPGap                   0.01
CPXPARAM_MIP_Tolerances_Integrality              9.9999999999999998e-13
Tried aggregator 4 times.
MIP Presolve eliminated 88647 rows and 18903 columns.
MIP Presolve added 3404 rows and 0 columns.
MIP Presolve modified 24892 coefficients.
Aggregator did 13034 substitutions.
Reduced MIP has 24976 rows, 21316 columns, and 71255 nonzeros.
Reduced MIP has 8424 binaries, 0 generals, 0 SOSs, and 0 indicators.
Presolve time = 0.33 sec. (193.98 ticks)
Probing fixed 419 vars, tightened 3964 bounds.
Probing time = 0.08 sec. (18.84 ticks)
Tried aggregator 2 times.
MIP Presolve eliminated 939 rows and 839 columns.
MIP Presolve modified 3037 coefficients.
Aggregator did 24 substitutions.
Reduced MIP has 24013 rows, 20453 columns, and 68461 nonzeros.
Reduced MIP has 8005 binaries, 0 generals, 0 SOSs, and 0 indicators.
Presolve time = 0.11 sec. (89.45 ticks)
Probing fixed 0 vars, tightened 311 bounds.
Probing time = 0.16 sec. (22.84 ticks)
Clique table members: 44897.
MIP emphasis: integer feasibility.
MIP search method: dynamic search.
Parallel mode: opportunistic, using up to 32 threads.
Root relaxation solution time = 0.38 sec. (584.71 ticks)

        Nodes                                         Cuts/
   Node  Left     Objective  IInf  Best Integer    Best Bound    ItCnt     Gap

      0     0     2397.9071    63                   2397.9071     5105         
*     0+    0                         2217.0419     2397.9071             8.16%
*     0+    0                         2397.9071     2397.9071             0.00%
      0     0        cutoff           2397.9071     2397.9071     5105    0.00%
Elapsed time = 1.98 sec. (1570.20 ticks, tree = 0.01 MB, solutions = 2)

Root node processing (before b&c):
  Real time             =    2.00 sec. (1572.40 ticks)
Parallel b&c, 32 threads:
  Real time             =    0.00 sec. (0.00 ticks)
  Sync time (average)   =    0.00 sec.
  Wait time (average)   =    0.00 sec.
                          ------------
Total (root+branch&cut) =    2.00 sec. (1572.40 ticks)

Solution pool: 2 solutions saved.

MIP - Integer optimal solution:  Objective =  2.3979071291e+03
Solution time =    2.01 sec.  Iterations = 5105  Nodes = 0
Deterministic time = 1572.55 ticks  (780.42 ticks/sec)

CPLEX> Incumbent solution written to file 'C:\Users\llavin\Desktop\test826\logs\tmpm3c87vaq.cplex.sol'.
CPLEX> NOTE: no warmstart specified for MIP iteration, default behavior is true
NOTE: resolving with all competitive generators using storage-only solution to warmstart
Solving...

Welcome to IBM(R) ILOG(R) CPLEX(R) Interactive Optimizer 12.9.0.0
  with Simplex, Mixed Integer & Barrier Optimizers
5725-A06 5725-A29 5724-Y48 5724-Y49 5724-Y54 5724-Y55 5655-Y21
Copyright IBM Corp. 1988, 2019.  All Rights Reserved.

Type 'help' for a list of available commands.
Type 'help' followed by a command name for more
information on commands.

CPLEX> Logfile 'cplex.log' closed.
Logfile 'C:\Users\llavin\Desktop\test826\logs\tmpudt8x5_n.cplex.log' open.
CPLEX> New value for parallel optimization mode: -1
CPLEX> New value for emphasis for MIP optimization: 1
CPLEX> New value for mixed integer optimality gap tolerance: 0.01
CPLEX> New value for integrality tolerance: 1e-12
CPLEX> New value for deterministic time limit in ticks: 75000
CPLEX> Problem 'C:\Users\llavin\Desktop\test826\logs\tmpvdn9872z.pyomo.lp' read.
Read time = 0.23 sec. (13.94 ticks)
CPLEX> MIP start file 'C:\Users\llavin\Desktop\test826\logs\tmpge0jcl_i.cplex.mst' read.
CPLEX> Problem name         : C:\Users\llavin\Desktop\test826\logs\tmpvdn9872z.pyomo.lp
Objective sense      : Maximize
Variables            :   54529  [Nneg: 1,  Box: 22724,  Free: 4464,
                                 Binary: 27340]
Objective nonzeros   :    9676
Linear constraints   :  123253  [Less: 41346,  Greater: 59096,  Equal: 22811]
  Nonzeros           :  293289
  RHS nonzeros       :   67491

Variables            : Min LB: -5000.000        Max UB: 1000000.       
Objective nonzeros   : Min   : 0.1083333        Max   : 741.5750       
Linear constraints   :
  Nonzeros           : Min   : 0.1083333        Max   : 1000000.       
  RHS nonzeros       : Min   : 0.1083333        Max   : 1000000.       
CPLEX> CPXPARAM_Parallel                                -1
CPXPARAM_Emphasis_MIP                            1
CPXPARAM_DetTimeLimit                            75000
CPXPARAM_MIP_Tolerances_MIPGap                   0.01
CPXPARAM_MIP_Tolerances_Integrality              9.9999999999999998e-13
Warning:  No solution found from 1 MIP starts.
Retaining values of one MIP start for possible repair.
Tried aggregator 4 times.
MIP Presolve eliminated 88647 rows and 19623 columns.
MIP Presolve added 3404 rows and 0 columns.
MIP Presolve modified 24892 coefficients.
Aggregator did 13034 substitutions.
Reduced MIP has 24976 rows, 21316 columns, and 71255 nonzeros.
Reduced MIP has 8424 binaries, 0 generals, 0 SOSs, and 0 indicators.
Presolve time = 0.34 sec. (194.40 ticks)
Probing fixed 419 vars, tightened 3964 bounds.
Probing time = 0.06 sec. (18.84 ticks)
Tried aggregator 2 times.
MIP Presolve eliminated 939 rows and 839 columns.
MIP Presolve modified 3037 coefficients.
Aggregator did 24 substitutions.
Reduced MIP has 24013 rows, 20453 columns, and 68461 nonzeros.
Reduced MIP has 8005 binaries, 0 generals, 0 SOSs, and 0 indicators.
Presolve time = 0.11 sec. (89.45 ticks)
Probing fixed 0 vars, tightened 311 bounds.
Probing time = 0.14 sec. (22.84 ticks)
Clique table members: 44897.
MIP emphasis: integer feasibility.
MIP search method: dynamic search.
Parallel mode: opportunistic, using up to 32 threads.
Root relaxation solution time = 0.44 sec. (645.30 ticks)

        Nodes                                         Cuts/
   Node  Left     Objective  IInf  Best Integer    Best Bound    ItCnt     Gap

      0     0   113874.3748   248                 113874.3748     5562         
      0     0   107155.6237   162                   Cuts: 143     5789         
      0     0   106742.4900   149                    Cuts: 40     5832         
      0     0   106696.7691   151                     Cuts: 5     5840         
Repair heuristic found nothing.
      0    37    98646.6350   138                    Cuts: 15     6412         
Elapsed time = 4.27 sec. (1860.57 ticks, tree = 0.02 MB, solutions = 0)
    792   338    68734.6258   120                 103892.5489     7961         
   1447  1029    52051.3525    73                 103892.5489    14768         
   2199  1851    infeasible                       103892.5489    32055         
   2869  1970    infeasible                       103892.5489    33901         
   3485  2352    -3238.1173    46                 103495.1856    42584         
   4111  2655    26375.7058    61                 103495.1856    53430         
   4711  3188    infeasible                       103495.1856    67156         
   5350  3409    46732.1218   104                 103495.1856    75260         
*  5513+ 2817                        13046.8826   103495.1856           693.26%
   8177  4098    18517.2906    44    13046.8826   103495.1856   138427  693.26%
Elapsed time = 20.19 sec. (4789.37 ticks, tree = 49.78 MB, solutions = 1)
*  8648+ 3964                        17134.2360   103495.1856           504.03%
   8704  4384        cutoff          17134.2360    69733.9711   165098  306.99%
  10746   586        cutoff          17134.2360    66249.3802   182883  286.65%
  13524   996    21479.0730    23    17394.6062    66249.3802   218252  280.86%
  16508   922        cutoff          17394.6062    57791.6224   241111  232.24%
  19526   454    28569.2050    36    17394.6062    57791.6224   296533  232.24%
  22129   157    21152.1876    26    17394.6062    31479.0707   333367   80.97%

GUB cover cuts applied:  1
Cover cuts applied:  10
Implied bound cuts applied:  51
Flow cuts applied:  136
Mixed integer rounding cuts applied:  14
Lift and project cuts applied:  20
Gomory fractional cuts applied:  3

Root node processing (before b&c):
  Real time             =    2.73 sec. (1821.58 ticks)
Parallel b&c, 32 threads:
  Real time             =   48.19 sec. (11121.85 ticks)
  Sync time (average)   =    2.41 sec.
  Wait time (average)   =    0.24 sec.
                          ------------
Total (root+branch&cut) =   50.92 sec. (12943.43 ticks)

Solution pool: 4 solutions saved.

MIP - Integer optimal, tolerance (0.01/1e-06):  Objective =  1.7394606249e+04
Current MIP best bound =  1.7559646276e+04 (gap = 165.04, 0.95%)
Solution time =   50.94 sec.  Iterations = 370814  Nodes = 22508 (51)
Deterministic time = 12943.59 ticks  (254.10 ticks/sec)

CPLEX> Incumbent solution written to file 'C:\Users\llavin\Desktop\test826\logs\tmpt7f3n5xm.cplex.sol'.
CPLEX> Exporting results... 
